# Solution for model continuous_rest_k_medians
# Objective value = 36955
x[0,0] 0
x[0,1] 0
x[0,2] 1
x[1,0] 0
x[1,1] 1
x[1,2] 0
x[2,0] 0
x[2,1] 1
x[2,2] 0
x[3,0] 0
x[3,1] 0
x[3,2] 1
x[4,0] 0
x[4,1] 0
x[4,2] 1
x[5,0] 0
x[5,1] 0
x[5,2] 1
x[6,0] 0
x[6,1] 0
x[6,2] 1
x[7,0] 0
x[7,1] 1
x[7,2] 0
x[8,0] 0
x[8,1] 1
x[8,2] 0
x[9,0] 0
x[9,1] 1
x[9,2] 0
x[10,0] 1
x[10,1] 0
x[10,2] 0
x[11,0] 1
x[11,1] 0
x[11,2] 0
x[12,0] 0
x[12,1] 0
x[12,2] 1
x[13,0] 0
x[13,1] 0
x[13,2] 1
x[14,0] 1
x[14,1] 0
x[14,2] 0
x[15,0] 1
x[15,1] 0
x[15,2] 0
x[16,0] 0
x[16,1] 0
x[16,2] 1
x[17,0] 0
x[17,1] 0
x[17,2] 1
x[18,0] 0
x[18,1] 0
x[18,2] 1
x[19,0] 0
x[19,1] 0
x[19,2] 1
x[20,0] 0
x[20,1] 0
x[20,2] 1
x[21,0] 0
x[21,1] 0
x[21,2] 1
x[22,0] 0
x[22,1] 0
x[22,2] 1
x[23,0] 0
x[23,1] 0
x[23,2] 1
x[24,0] 0
x[24,1] 0
x[24,2] 1
x[25,0] 0
x[25,1] 0
x[25,2] 1
x[26,0] 0
x[26,1] 0
x[26,2] 1
x[27,0] 0
x[27,1] 0
x[27,2] 1
x[28,0] 0
x[28,1] 0
x[28,2] 1
x[29,0] 0
x[29,1] 0
x[29,2] 1
x[30,0] 0
x[30,1] 0
x[30,2] 1
x[31,0] 0
x[31,1] 0
x[31,2] 1
x[32,0] 0
x[32,1] 0
x[32,2] 1
x[33,0] 0
x[33,1] 0
x[33,2] 1
x[34,0] 0
x[34,1] 1
x[34,2] 0
x[35,0] 0
x[35,1] 1
x[35,2] 0
x[36,0] 0
x[36,1] 1
x[36,2] 0
x[37,0] 0
x[37,1] 0
x[37,2] 1
x[38,0] 0
x[38,1] 1
x[38,2] 0
x[39,0] 1
x[39,1] 0
x[39,2] 0
x[40,0] 0
x[40,1] 0
x[40,2] 1
x[41,0] 0
x[41,1] 0
x[41,2] 1
x[42,0] 0
x[42,1] 0
x[42,2] 1
x[43,0] 0
x[43,1] 0
x[43,2] 1
x[44,0] 0
x[44,1] 0
x[44,2] 1
x[45,0] 0
x[45,1] 0
x[45,2] 1
x[46,0] 0
x[46,1] 1
x[46,2] 0
x[47,0] 1
x[47,1] 0
x[47,2] 0
x[48,0] 0
x[48,1] 0
x[48,2] 1
x[49,0] 0
x[49,1] 0
x[49,2] 1
x[50,0] 0
x[50,1] 0
x[50,2] 1
x[51,0] 0
x[51,1] 1
x[51,2] 0
x[52,0] 0
x[52,1] 1
x[52,2] 0
x[53,0] 1
x[53,1] 0
x[53,2] 0
x[54,0] 0
x[54,1] 0
x[54,2] 1
x[55,0] 0
x[55,1] 0
x[55,2] 1
x[56,0] 1
x[56,1] 0
x[56,2] 0
x[57,0] 0
x[57,1] 0
x[57,2] 1
x[58,0] 0
x[58,1] 0
x[58,2] 1
x[59,0] 0
x[59,1] 0
x[59,2] 1
x[60,0] 0
x[60,1] 0
x[60,2] 1
x[61,0] 0
x[61,1] 0
x[61,2] 1
x[62,0] 0
x[62,1] 0
x[62,2] 1
x[63,0] 0
x[63,1] 0
x[63,2] 1
x[64,0] 0
x[64,1] 0
x[64,2] 1
x[65,0] 0
x[65,1] 0
x[65,2] 1
x[66,0] 0
x[66,1] 0
x[66,2] 1
x[67,0] 0
x[67,1] 0
x[67,2] 1
x[68,0] 0
x[68,1] 0
x[68,2] 1
x[69,0] 0
x[69,1] 0
x[69,2] 1
x[70,0] 0
x[70,1] 0
x[70,2] 1
x[71,0] 0
x[71,1] 0
x[71,2] 1
x[72,0] 0
x[72,1] 0
x[72,2] 1
x[73,0] 0
x[73,1] 0
x[73,2] 1
x[74,0] 0
x[74,1] 0
x[74,2] 1
x[75,0] 0
x[75,1] 0
x[75,2] 1
x[76,0] 0
x[76,1] 0
x[76,2] 1
x[77,0] 0
x[77,1] 0
x[77,2] 1
x[78,0] 0
x[78,1] 0
x[78,2] 1
x[79,0] 0
x[79,1] 0
x[79,2] 1
x[80,0] 0
x[80,1] 0
x[80,2] 1
x[81,0] 0
x[81,1] 0
x[81,2] 1
x[82,0] 1
x[82,1] 0
x[82,2] 0
x[83,0] 1
x[83,1] 0
x[83,2] 0
x[84,0] 1
x[84,1] 0
x[84,2] 0
x[85,0] 1
x[85,1] 0
x[85,2] 0
x[86,0] 1
x[86,1] 0
x[86,2] 0
x[87,0] 1
x[87,1] 0
x[87,2] 0
x[88,0] 1
x[88,1] 0
x[88,2] 0
x[89,0] 1
x[89,1] 0
x[89,2] 0
x[90,0] 1
x[90,1] 0
x[90,2] 0
x[91,0] 1
x[91,1] 0
x[91,2] 0
x[92,0] 1
x[92,1] 0
x[92,2] 0
x[93,0] 1
x[93,1] 0
x[93,2] 0
x[94,0] 1
x[94,1] 0
x[94,2] 0
x[95,0] 1
x[95,1] 0
x[95,2] 0
x[96,0] 0
x[96,1] 0
x[96,2] 1
x[97,0] 0
x[97,1] 0
x[97,2] 1
x[98,0] 0
x[98,1] 0
x[98,2] 1
x[99,0] 0
x[99,1] 0
x[99,2] 1
x[100,0] 0
x[100,1] 0
x[100,2] 1
x[101,0] 0
x[101,1] 0
x[101,2] 1
x[102,0] 0
x[102,1] 0
x[102,2] 1
x[103,0] 0
x[103,1] 0
x[103,2] 1
x[104,0] 0
x[104,1] 0
x[104,2] 1
x[105,0] 0
x[105,1] 0
x[105,2] 1
x[106,0] 0
x[106,1] 0
x[106,2] 1
x[107,0] 0
x[107,1] 0
x[107,2] 1
x[108,0] 0
x[108,1] 0
x[108,2] 1
x[109,0] 0
x[109,1] 0
x[109,2] 1
x[110,0] 0
x[110,1] 0
x[110,2] 1
x[111,0] 1
x[111,1] 0
x[111,2] 0
x[112,0] 1
x[112,1] 0
x[112,2] 0
x[113,0] 1
x[113,1] 0
x[113,2] 0
x[114,0] 1
x[114,1] 0
x[114,2] 0
x[115,0] 1
x[115,1] 0
x[115,2] 0
x[116,0] 1
x[116,1] 0
x[116,2] 0
x[117,0] 1
x[117,1] 0
x[117,2] 0
x[118,0] 0
x[118,1] 0
x[118,2] 1
x[119,0] 0
x[119,1] 0
x[119,2] 1
x[120,0] 0
x[120,1] 0
x[120,2] 1
x[121,0] 0
x[121,1] 0
x[121,2] 1
x[122,0] 0
x[122,1] 0
x[122,2] 1
x[123,0] 0
x[123,1] 0
x[123,2] 1
x[124,0] 0
x[124,1] 0
x[124,2] 1
x[125,0] 0
x[125,1] 0
x[125,2] 1
x[126,0] 0
x[126,1] 0
x[126,2] 1
x[127,0] 0
x[127,1] 0
x[127,2] 1
x[128,0] 0
x[128,1] 0
x[128,2] 1
x[129,0] 0
x[129,1] 0
x[129,2] 1
x[130,0] 0
x[130,1] 0
x[130,2] 1
x[131,0] 0
x[131,1] 0
x[131,2] 1
x[132,0] 0
x[132,1] 0
x[132,2] 1
x[133,0] 0
x[133,1] 0
x[133,2] 1
x[134,0] 0
x[134,1] 0
x[134,2] 1
x[135,0] 0
x[135,1] 0
x[135,2] 1
x[136,0] 0
x[136,1] 0
x[136,2] 1
x[137,0] 0
x[137,1] 0
x[137,2] 1
x[138,0] 0
x[138,1] 0
x[138,2] 1
x[139,0] 0
x[139,1] 0
x[139,2] 1
x[140,0] 0
x[140,1] 0
x[140,2] 1
x[141,0] 0
x[141,1] 0
x[141,2] 1
x[142,0] 0
x[142,1] 0
x[142,2] 1
x[143,0] 0
x[143,1] 0
x[143,2] 1
x[144,0] 0
x[144,1] 0
x[144,2] 1
x[145,0] 0
x[145,1] 0
x[145,2] 1
x[146,0] 0
x[146,1] 0
x[146,2] 1
x[147,0] 0
x[147,1] 0
x[147,2] 1
x[148,0] 0
x[148,1] 0
x[148,2] 1
x[149,0] 0
x[149,1] 0
x[149,2] 1
x[150,0] 0
x[150,1] 0
x[150,2] 1
x[151,0] 0
x[151,1] 0
x[151,2] 1
x[152,0] 0
x[152,1] 0
x[152,2] 1
x[153,0] 0
x[153,1] 0
x[153,2] 1
x[154,0] 0
x[154,1] 0
x[154,2] 1
x[155,0] 0
x[155,1] 0
x[155,2] 1
x[156,0] 0
x[156,1] 0
x[156,2] 1
x[157,0] 0
x[157,1] 0
x[157,2] 1
x[158,0] 0
x[158,1] 0
x[158,2] 1
x[159,0] 0
x[159,1] 0
x[159,2] 1
x[160,0] 0
x[160,1] 0
x[160,2] 1
x[161,0] 0
x[161,1] 0
x[161,2] 1
x[162,0] 0
x[162,1] 0
x[162,2] 1
x[163,0] 0
x[163,1] 0
x[163,2] 1
x[164,0] 0
x[164,1] 0
x[164,2] 1
x[165,0] 0
x[165,1] 0
x[165,2] 1
x[166,0] 0
x[166,1] 0
x[166,2] 1
x[167,0] 0
x[167,1] 0
x[167,2] 1
x[168,0] 0
x[168,1] 0
x[168,2] 1
x[169,0] 0
x[169,1] 0
x[169,2] 1
x[170,0] 0
x[170,1] 0
x[170,2] 1
x[171,0] 0
x[171,1] 0
x[171,2] 1
x[172,0] 0
x[172,1] 0
x[172,2] 1
x[173,0] 0
x[173,1] 0
x[173,2] 1
x[174,0] 0
x[174,1] 0
x[174,2] 1
x[175,0] 0
x[175,1] 0
x[175,2] 1
x[176,0] 0
x[176,1] 0
x[176,2] 1
x[177,0] 0
x[177,1] 0
x[177,2] 1
x[178,0] 0
x[178,1] 0
x[178,2] 1
x[179,0] 0
x[179,1] 0
x[179,2] 1
x[180,0] 0
x[180,1] 0
x[180,2] 1
x[181,0] 0
x[181,1] 0
x[181,2] 1
x[182,0] 0
x[182,1] 0
x[182,2] 1
x[183,0] 0
x[183,1] 0
x[183,2] 1
x[184,0] 0
x[184,1] 0
x[184,2] 1
x[185,0] 0
x[185,1] 0
x[185,2] 1
x[186,0] 0
x[186,1] 0
x[186,2] 1
x[187,0] 0
x[187,1] 0
x[187,2] 1
x[188,0] 0
x[188,1] 0
x[188,2] 1
x[189,0] 0
x[189,1] 0
x[189,2] 1
x[190,0] 0
x[190,1] 0
x[190,2] 1
x[191,0] 0
x[191,1] 0
x[191,2] 1
x[192,0] 0
x[192,1] 0
x[192,2] 1
x[193,0] 0
x[193,1] 0
x[193,2] 1
x[194,0] 0
x[194,1] 0
x[194,2] 1
x[195,0] 0
x[195,1] 0
x[195,2] 1
x[196,0] 0
x[196,1] 0
x[196,2] 1
x[197,0] 0
x[197,1] 0
x[197,2] 1
x[198,0] 0
x[198,1] 0
x[198,2] 1
x[199,0] 0
x[199,1] 0
x[199,2] 1
x[200,0] 0
x[200,1] 0
x[200,2] 1
x[201,0] 0
x[201,1] 0
x[201,2] 1
x[202,0] 0
x[202,1] 0
x[202,2] 1
x[203,0] 0
x[203,1] 1
x[203,2] 0
x[204,0] 0
x[204,1] 0
x[204,2] 1
x[205,0] 0
x[205,1] 0
x[205,2] 1
x[206,0] 0
x[206,1] 0
x[206,2] 1
x[207,0] 0
x[207,1] 0
x[207,2] 1
x[208,0] 1
x[208,1] 0
x[208,2] 0
x[209,0] 0
x[209,1] 0
x[209,2] 1
x[210,0] 0
x[210,1] 0
x[210,2] 1
x[211,0] 0
x[211,1] 0
x[211,2] 1
x[212,0] 0
x[212,1] 0
x[212,2] 1
x[213,0] 0
x[213,1] 0
x[213,2] 1
x[214,0] 0
x[214,1] 0
x[214,2] 1
x[215,0] 0
x[215,1] 1
x[215,2] 0
x[216,0] 0
x[216,1] 1
x[216,2] 0
x[217,0] 1
x[217,1] 0
x[217,2] 0
x[218,0] 0
x[218,1] 0
x[218,2] 1
x[219,0] 0
x[219,1] 0
x[219,2] 1
x[220,0] 1
x[220,1] 0
x[220,2] 0
x[221,0] 0
x[221,1] 0
x[221,2] 1
x[222,0] 0
x[222,1] 0
x[222,2] 1
x[223,0] 0
x[223,1] 0
x[223,2] 1
x[224,0] 0
x[224,1] 0
x[224,2] 1
x[225,0] 0
x[225,1] 0
x[225,2] 1
x[226,0] 0
x[226,1] 0
x[226,2] 1
x[227,0] 0
x[227,1] 0
x[227,2] 1
x[228,0] 0
x[228,1] 0
x[228,2] 1
x[229,0] 0
x[229,1] 0
x[229,2] 1
x[230,0] 0
x[230,1] 0
x[230,2] 1
x[231,0] 1
x[231,1] 0
x[231,2] 0
x[232,0] 0
x[232,1] 0
x[232,2] 1
x[233,0] 0
x[233,1] 0
x[233,2] 1
x[234,0] 0
x[234,1] 0
x[234,2] 1
x[235,0] 0
x[235,1] 0
x[235,2] 1
x[236,0] 0
x[236,1] 0
x[236,2] 1
x[237,0] 0
x[237,1] 0
x[237,2] 1
x[238,0] 0
x[238,1] 0
x[238,2] 1
x[239,0] 0
x[239,1] 0
x[239,2] 1
x[240,0] 0
x[240,1] 0
x[240,2] 1
x[241,0] 0
x[241,1] 0
x[241,2] 1
x[242,0] 0
x[242,1] 0
x[242,2] 1
x[243,0] 0
x[243,1] 0
x[243,2] 1
x[244,0] 0
x[244,1] 0
x[244,2] 1
x[245,0] 0
x[245,1] 0
x[245,2] 1
x[246,0] 0
x[246,1] 0
x[246,2] 1
x[247,0] 0
x[247,1] 0
x[247,2] 1
x[248,0] 0
x[248,1] 0
x[248,2] 1
x[249,0] 0
x[249,1] 0
x[249,2] 1
x[250,0] 0
x[250,1] 0
x[250,2] 1
x[251,0] 0
x[251,1] 1
x[251,2] 0
x[252,0] 0
x[252,1] 1
x[252,2] 0
x[253,0] 0
x[253,1] 1
x[253,2] 0
x[254,0] 0
x[254,1] 1
x[254,2] 0
x[255,0] 0
x[255,1] 1
x[255,2] 0
x[256,0] 0
x[256,1] 1
x[256,2] 0
x[257,0] 0
x[257,1] 1
x[257,2] 0
x[258,0] 0
x[258,1] 1
x[258,2] 0
x[259,0] 0
x[259,1] 1
x[259,2] 0
x[260,0] 0
x[260,1] 1
x[260,2] 0
x[261,0] 0
x[261,1] 1
x[261,2] 0
x[262,0] 0
x[262,1] 1
x[262,2] 0
x[263,0] 0
x[263,1] 1
x[263,2] 0
x[264,0] 0
x[264,1] 1
x[264,2] 0
x[265,0] 0
x[265,1] 1
x[265,2] 0
x[266,0] 0
x[266,1] 0
x[266,2] 1
x[267,0] 0
x[267,1] 0
x[267,2] 1
x[268,0] 0
x[268,1] 0
x[268,2] 1
x[269,0] 0
x[269,1] 0
x[269,2] 1
x[270,0] 0
x[270,1] 0
x[270,2] 1
x[271,0] 0
x[271,1] 0
x[271,2] 1
x[272,0] 0
x[272,1] 0
x[272,2] 1
x[273,0] 0
x[273,1] 0
x[273,2] 1
x[274,0] 0
x[274,1] 0
x[274,2] 1
x[275,0] 0
x[275,1] 0
x[275,2] 1
x[276,0] 0
x[276,1] 0
x[276,2] 1
x[277,0] 0
x[277,1] 0
x[277,2] 1
x[278,0] 0
x[278,1] 0
x[278,2] 1
x[279,0] 0
x[279,1] 0
x[279,2] 1
x[280,0] 0
x[280,1] 0
x[280,2] 1
x[281,0] 0
x[281,1] 1
x[281,2] 0
x[282,0] 0
x[282,1] 1
x[282,2] 0
x[283,0] 0
x[283,1] 1
x[283,2] 0
x[284,0] 0
x[284,1] 1
x[284,2] 0
x[285,0] 0
x[285,1] 1
x[285,2] 0
x[286,0] 0
x[286,1] 1
x[286,2] 0
x[287,0] 0
x[287,1] 1
x[287,2] 0
x[288,0] 0
x[288,1] 1
x[288,2] 0
x[289,0] 0
x[289,1] 1
x[289,2] 0
x[290,0] 0
x[290,1] 1
x[290,2] 0
x[291,0] 0
x[291,1] 1
x[291,2] 0
x[292,0] 0
x[292,1] 1
x[292,2] 0
x[293,0] 0
x[293,1] 1
x[293,2] 0
x[294,0] 0
x[294,1] 1
x[294,2] 0
x[295,0] 0
x[295,1] 1
x[295,2] 0
x[296,0] 0
x[296,1] 1
x[296,2] 0
x[297,0] 0
x[297,1] 1
x[297,2] 0
x[298,0] 0
x[298,1] 1
x[298,2] 0
x[299,0] 0
x[299,1] 1
x[299,2] 0
x[300,0] 0
x[300,1] 1
x[300,2] 0
x[301,0] 0
x[301,1] 1
x[301,2] 0
x[302,0] 0
x[302,1] 1
x[302,2] 0
x[303,0] 0
x[303,1] 1
x[303,2] 0
x[304,0] 0
x[304,1] 1
x[304,2] 0
x[305,0] 0
x[305,1] 1
x[305,2] 0
x[306,0] 0
x[306,1] 1
x[306,2] 0
x[307,0] 0
x[307,1] 1
x[307,2] 0
x[308,0] 0
x[308,1] 1
x[308,2] 0
x[309,0] 0
x[309,1] 1
x[309,2] 0
x[310,0] 1
x[310,1] 0
x[310,2] 0
x[311,0] 1
x[311,1] 0
x[311,2] 0
x[312,0] 1
x[312,1] 0
x[312,2] 0
x[313,0] 1
x[313,1] 0
x[313,2] 0
x[314,0] 0
x[314,1] 1
x[314,2] 0
x[315,0] 0
x[315,1] 1
x[315,2] 0
x[316,0] 0
x[316,1] 1
x[316,2] 0
x[317,0] 0
x[317,1] 1
x[317,2] 0
x[318,0] 0
x[318,1] 1
x[318,2] 0
x[319,0] 0
x[319,1] 1
x[319,2] 0
x[320,0] 0
x[320,1] 1
x[320,2] 0
x[321,0] 0
x[321,1] 1
x[321,2] 0
x[322,0] 0
x[322,1] 1
x[322,2] 0
x[323,0] 0
x[323,1] 1
x[323,2] 0
x[324,0] 0
x[324,1] 1
x[324,2] 0
x[325,0] 0
x[325,1] 1
x[325,2] 0
x[326,0] 0
x[326,1] 1
x[326,2] 0
x[327,0] 0
x[327,1] 1
x[327,2] 0
x[328,0] 0
x[328,1] 1
x[328,2] 0
x[329,0] 0
x[329,1] 1
x[329,2] 0
x[330,0] 0
x[330,1] 1
x[330,2] 0
x[331,0] 0
x[331,1] 1
x[331,2] 0
x[332,0] 0
x[332,1] 1
x[332,2] 0
x[333,0] 0
x[333,1] 1
x[333,2] 0
x[334,0] 0
x[334,1] 1
x[334,2] 0
x[335,0] 0
x[335,1] 1
x[335,2] 0
x[336,0] 0
x[336,1] 1
x[336,2] 0
x[337,0] 0
x[337,1] 1
x[337,2] 0
x[338,0] 0
x[338,1] 1
x[338,2] 0
x[339,0] 0
x[339,1] 1
x[339,2] 0
x[340,0] 0
x[340,1] 1
x[340,2] 0
x[341,0] 0
x[341,1] 1
x[341,2] 0
x[342,0] 0
x[342,1] 1
x[342,2] 0
x[343,0] 0
x[343,1] 1
x[343,2] 0
x[344,0] 0
x[344,1] 1
x[344,2] 0
x[345,0] 0
x[345,1] 1
x[345,2] 0
x[346,0] 0
x[346,1] 1
x[346,2] 0
x[347,0] 0
x[347,1] 1
x[347,2] 0
x[348,0] 0
x[348,1] 1
x[348,2] 0
x[349,0] 0
x[349,1] 1
x[349,2] 0
x[350,0] 0
x[350,1] 1
x[350,2] 0
x[351,0] 0
x[351,1] 1
x[351,2] 0
x[352,0] 0
x[352,1] 1
x[352,2] 0
x[353,0] 0
x[353,1] 1
x[353,2] 0
x[354,0] 0
x[354,1] 1
x[354,2] 0
x[355,0] 0
x[355,1] 1
x[355,2] 0
x[356,0] 0
x[356,1] 1
x[356,2] 0
x[357,0] 0
x[357,1] 1
x[357,2] 0
x[358,0] 0
x[358,1] 1
x[358,2] 0
x[359,0] 0
x[359,1] 1
x[359,2] 0
x[360,0] 0
x[360,1] 1
x[360,2] 0
x[361,0] 0
x[361,1] 1
x[361,2] 0
x[362,0] 0
x[362,1] 1
x[362,2] 0
x[363,0] 0
x[363,1] 1
x[363,2] 0
x[364,0] 0
x[364,1] 1
x[364,2] 0
x[365,0] 0
x[365,1] 0
x[365,2] 1
x[366,0] 0
x[366,1] 1
x[366,2] 0
x[367,0] 0
x[367,1] 0
x[367,2] 1
x[368,0] 0
x[368,1] 0
x[368,2] 1
x[369,0] 0
x[369,1] 1
x[369,2] 0
x[370,0] 0
x[370,1] 1
x[370,2] 0
x[371,0] 0
x[371,1] 1
x[371,2] 0
x[372,0] 0
x[372,1] 1
x[372,2] 0
x[373,0] 1
x[373,1] 0
x[373,2] 0
x[374,0] 0
x[374,1] 0
x[374,2] 1
x[375,0] 0
x[375,1] 0
x[375,2] 1
x[376,0] 0
x[376,1] 0
x[376,2] 1
x[377,0] 0
x[377,1] 0
x[377,2] 1
x[378,0] 0
x[378,1] 0
x[378,2] 1
x[379,0] 0
x[379,1] 0
x[379,2] 1
x[380,0] 0
x[380,1] 0
x[380,2] 1
x[381,0] 0
x[381,1] 0
x[381,2] 1
x[382,0] 0
x[382,1] 0
x[382,2] 1
x[383,0] 0
x[383,1] 0
x[383,2] 1
x[384,0] 0
x[384,1] 0
x[384,2] 1
x[385,0] 0
x[385,1] 0
x[385,2] 1
x[386,0] 0
x[386,1] 0
x[386,2] 1
x[387,0] 0
x[387,1] 0
x[387,2] 1
x[388,0] 0
x[388,1] 0
x[388,2] 1
x[389,0] 0
x[389,1] 0
x[389,2] 1
x[390,0] 0
x[390,1] 0
x[390,2] 1
x[391,0] 0
x[391,1] 1
x[391,2] 0
x[392,0] 0
x[392,1] 1
x[392,2] 0
x[393,0] 0
x[393,1] 1
x[393,2] 0
x[394,0] 0
x[394,1] 1
x[394,2] 0
x[395,0] 0
x[395,1] 1
x[395,2] 0
x[396,0] 0
x[396,1] 1
x[396,2] 0
x[397,0] 0
x[397,1] 1
x[397,2] 0
x[398,0] 0
x[398,1] 1
x[398,2] 0
x[399,0] 0
x[399,1] 1
x[399,2] 0
x[400,0] 0
x[400,1] 1
x[400,2] 0
x[401,0] 0
x[401,1] 1
x[401,2] 0
x[402,0] 0
x[402,1] 1
x[402,2] 0
x[403,0] 0
x[403,1] 1
x[403,2] 0
x[404,0] 0
x[404,1] 1
x[404,2] 0
x[405,0] 0
x[405,1] 1
x[405,2] 0
x[406,0] 0
x[406,1] 1
x[406,2] 0
x[407,0] 0
x[407,1] 1
x[407,2] 0
x[408,0] 0
x[408,1] 1
x[408,2] 0
x[409,0] 1
x[409,1] 0
x[409,2] 0
x[410,0] 0
x[410,1] 1
x[410,2] 0
x[411,0] 0
x[411,1] 1
x[411,2] 0
x[412,0] 0
x[412,1] 0
x[412,2] 1
x[413,0] 0
x[413,1] 0
x[413,2] 1
x[414,0] 0
x[414,1] 0
x[414,2] 1
x[415,0] 0
x[415,1] 0
x[415,2] 1
x[416,0] 0
x[416,1] 0
x[416,2] 1
x[417,0] 0
x[417,1] 0
x[417,2] 1
x[418,0] 0
x[418,1] 0
x[418,2] 1
x[419,0] 0
x[419,1] 1
x[419,2] 0
x[420,0] 0
x[420,1] 0
x[420,2] 1
x[421,0] 0
x[421,1] 0
x[421,2] 1
x[422,0] 0
x[422,1] 0
x[422,2] 1
x[423,0] 0
x[423,1] 0
x[423,2] 1
x[424,0] 0
x[424,1] 0
x[424,2] 1
x[425,0] 0
x[425,1] 1
x[425,2] 0
x[426,0] 0
x[426,1] 0
x[426,2] 1
x[427,0] 0
x[427,1] 0
x[427,2] 1
x[428,0] 0
x[428,1] 0
x[428,2] 1
x[429,0] 0
x[429,1] 0
x[429,2] 1
x[430,0] 0
x[430,1] 1
x[430,2] 0
x[431,0] 0
x[431,1] 1
x[431,2] 0
x[432,0] 0
x[432,1] 1
x[432,2] 0
x[433,0] 0
x[433,1] 1
x[433,2] 0
x[434,0] 0
x[434,1] 0
x[434,2] 1
x[435,0] 0
x[435,1] 0
x[435,2] 1
x[436,0] 0
x[436,1] 1
x[436,2] 0
x[437,0] 0
x[437,1] 0
x[437,2] 1
x[438,0] 0
x[438,1] 1
x[438,2] 0
x[439,0] 0
x[439,1] 1
x[439,2] 0
x[440,0] 0
x[440,1] 1
x[440,2] 0
x[441,0] 0
x[441,1] 0
x[441,2] 1
x[442,0] 0
x[442,1] 0
x[442,2] 1
x[443,0] 0
x[443,1] 1
x[443,2] 0
x[444,0] 0
x[444,1] 1
x[444,2] 0
x[445,0] 0
x[445,1] 0
x[445,2] 1
x[446,0] 0
x[446,1] 1
x[446,2] 0
x[447,0] 0
x[447,1] 0
x[447,2] 1
x[448,0] 0
x[448,1] 0
x[448,2] 1
x[449,0] 0
x[449,1] 1
x[449,2] 0
x[450,0] 0
x[450,1] 1
x[450,2] 0
x[451,0] 0
x[451,1] 1
x[451,2] 0
x[452,0] 0
x[452,1] 1
x[452,2] 0
x[453,0] 0
x[453,1] 1
x[453,2] 0
x[454,0] 0
x[454,1] 1
x[454,2] 0
x[455,0] 1
x[455,1] 0
x[455,2] 0
x[456,0] 0
x[456,1] 0
x[456,2] 1
x[457,0] 0
x[457,1] 1
x[457,2] 0
x[458,0] 0
x[458,1] 1
x[458,2] 0
x[459,0] 0
x[459,1] 0
x[459,2] 1
x[460,0] 1
x[460,1] 0
x[460,2] 0
x[461,0] 1
x[461,1] 0
x[461,2] 0
x[462,0] 1
x[462,1] 0
x[462,2] 0
x[463,0] 1
x[463,1] 0
x[463,2] 0
x[464,0] 1
x[464,1] 0
x[464,2] 0
x[465,0] 1
x[465,1] 0
x[465,2] 0
x[466,0] 1
x[466,1] 0
x[466,2] 0
x[467,0] 1
x[467,1] 0
x[467,2] 0
x[468,0] 1
x[468,1] 0
x[468,2] 0
x[469,0] 1
x[469,1] 0
x[469,2] 0
x[470,0] 1
x[470,1] 0
x[470,2] 0
x[471,0] 1
x[471,1] 0
x[471,2] 0
x[472,0] 1
x[472,1] 0
x[472,2] 0
x[473,0] 1
x[473,1] 0
x[473,2] 0
x[474,0] 1
x[474,1] 0
x[474,2] 0
x[475,0] 1
x[475,1] 0
x[475,2] 0
x[476,0] 1
x[476,1] 0
x[476,2] 0
x[477,0] 1
x[477,1] 0
x[477,2] 0
x[478,0] 1
x[478,1] 0
x[478,2] 0
x[479,0] 1
x[479,1] 0
x[479,2] 0
x[480,0] 1
x[480,1] 0
x[480,2] 0
x[481,0] 1
x[481,1] 0
x[481,2] 0
x[482,0] 1
x[482,1] 0
x[482,2] 0
x[483,0] 1
x[483,1] 0
x[483,2] 0
x[484,0] 1
x[484,1] 0
x[484,2] 0
x[485,0] 1
x[485,1] 0
x[485,2] 0
x[486,0] 1
x[486,1] 0
x[486,2] 0
x[487,0] 1
x[487,1] 0
x[487,2] 0
x[488,0] 1
x[488,1] 0
x[488,2] 0
x[489,0] 1
x[489,1] 0
x[489,2] 0
x[490,0] 1
x[490,1] 0
x[490,2] 0
x[491,0] 1
x[491,1] 0
x[491,2] 0
x[492,0] 1
x[492,1] 0
x[492,2] 0
x[493,0] 1
x[493,1] 0
x[493,2] 0
x[494,0] 1
x[494,1] 0
x[494,2] 0
x[495,0] 1
x[495,1] 0
x[495,2] 0
x[496,0] 1
x[496,1] 0
x[496,2] 0
x[497,0] 1
x[497,1] 0
x[497,2] 0
x[498,0] 1
x[498,1] 0
x[498,2] 0
x[499,0] 1
x[499,1] 0
x[499,2] 0
x[500,0] 1
x[500,1] 0
x[500,2] 0
x[501,0] 1
x[501,1] 0
x[501,2] 0
x[502,0] 0
x[502,1] 1
x[502,2] 0
x[503,0] 1
x[503,1] 0
x[503,2] 0
x[504,0] 1
x[504,1] 0
x[504,2] 0
x[505,0] 1
x[505,1] 0
x[505,2] 0
x[506,0] 1
x[506,1] 0
x[506,2] 0
x[507,0] 1
x[507,1] 0
x[507,2] 0
x[508,0] 1
x[508,1] 0
x[508,2] 0
x[509,0] 1
x[509,1] 0
x[509,2] 0
x[510,0] 1
x[510,1] 0
x[510,2] 0
x[511,0] 1
x[511,1] 0
x[511,2] 0
x[512,0] 1
x[512,1] 0
x[512,2] 0
x[513,0] 1
x[513,1] 0
x[513,2] 0
x[514,0] 1
x[514,1] 0
x[514,2] 0
x[515,0] 1
x[515,1] 0
x[515,2] 0
x[516,0] 1
x[516,1] 0
x[516,2] 0
x[517,0] 1
x[517,1] 0
x[517,2] 0
x[518,0] 0
x[518,1] 1
x[518,2] 0
x[519,0] 1
x[519,1] 0
x[519,2] 0
x[520,0] 1
x[520,1] 0
x[520,2] 0
x[521,0] 0
x[521,1] 1
x[521,2] 0
x[522,0] 0
x[522,1] 1
x[522,2] 0
x[523,0] 1
x[523,1] 0
x[523,2] 0
x[524,0] 1
x[524,1] 0
x[524,2] 0
x[525,0] 1
x[525,1] 0
x[525,2] 0
x[526,0] 1
x[526,1] 0
x[526,2] 0
x[527,0] 1
x[527,1] 0
x[527,2] 0
x[528,0] 0
x[528,1] 1
x[528,2] 0
x[529,0] 0
x[529,1] 1
x[529,2] 0
x[530,0] 1
x[530,1] 0
x[530,2] 0
x[531,0] 0
x[531,1] 1
x[531,2] 0
x[532,0] 0
x[532,1] 1
x[532,2] 0
x[533,0] 1
x[533,1] 0
x[533,2] 0
x[534,0] 1
x[534,1] 0
x[534,2] 0
x[535,0] 1
x[535,1] 0
x[535,2] 0
x[536,0] 1
x[536,1] 0
x[536,2] 0
x[537,0] 0
x[537,1] 1
x[537,2] 0
x[538,0] 0
x[538,1] 1
x[538,2] 0
x[539,0] 1
x[539,1] 0
x[539,2] 0
x[540,0] 1
x[540,1] 0
x[540,2] 0
x[541,0] 1
x[541,1] 0
x[541,2] 0
x[542,0] 0
x[542,1] 1
x[542,2] 0
x[543,0] 1
x[543,1] 0
x[543,2] 0
x[544,0] 0
x[544,1] 1
x[544,2] 0
x[545,0] 1
x[545,1] 0
x[545,2] 0
x[546,0] 1
x[546,1] 0
x[546,2] 0
x[547,0] 0
x[547,1] 1
x[547,2] 0
x[548,0] 1
x[548,1] 0
x[548,2] 0
x[549,0] 0
x[549,1] 1
x[549,2] 0
x[550,0] 0
x[550,1] 1
x[550,2] 0
x[551,0] 1
x[551,1] 0
x[551,2] 0
x[552,0] 1
x[552,1] 0
x[552,2] 0
x[553,0] 1
x[553,1] 0
x[553,2] 0
x[554,0] 1
x[554,1] 0
x[554,2] 0
x[555,0] 1
x[555,1] 0
x[555,2] 0
x[556,0] 1
x[556,1] 0
x[556,2] 0
x[557,0] 1
x[557,1] 0
x[557,2] 0
x[558,0] 1
x[558,1] 0
x[558,2] 0
x[559,0] 1
x[559,1] 0
x[559,2] 0
x[560,0] 1
x[560,1] 0
x[560,2] 0
x[561,0] 1
x[561,1] 0
x[561,2] 0
x[562,0] 1
x[562,1] 0
x[562,2] 0
x[563,0] 1
x[563,1] 0
x[563,2] 0
x[564,0] 1
x[564,1] 0
x[564,2] 0
x[565,0] 1
x[565,1] 0
x[565,2] 0
x[566,0] 1
x[566,1] 0
x[566,2] 0
x[567,0] 1
x[567,1] 0
x[567,2] 0
x[568,0] 1
x[568,1] 0
x[568,2] 0
x[569,0] 1
x[569,1] 0
x[569,2] 0
x[570,0] 1
x[570,1] 0
x[570,2] 0
x[571,0] 1
x[571,1] 0
x[571,2] 0
x[572,0] 1
x[572,1] 0
x[572,2] 0
x[573,0] 1
x[573,1] 0
x[573,2] 0
x[574,0] 1
x[574,1] 0
x[574,2] 0
x[575,0] 1
x[575,1] 0
x[575,2] 0
x[576,0] 0
x[576,1] 1
x[576,2] 0
x[577,0] 1
x[577,1] 0
x[577,2] 0
x[578,0] 1
x[578,1] 0
x[578,2] 0
x[579,0] 1
x[579,1] 0
x[579,2] 0
x[580,0] 1
x[580,1] 0
x[580,2] 0
x[581,0] 1
x[581,1] 0
x[581,2] 0
x[582,0] 1
x[582,1] 0
x[582,2] 0
x[583,0] 1
x[583,1] 0
x[583,2] 0
x[584,0] 1
x[584,1] 0
x[584,2] 0
x[585,0] 1
x[585,1] 0
x[585,2] 0
x[586,0] 1
x[586,1] 0
x[586,2] 0
x[587,0] 1
x[587,1] 0
x[587,2] 0
x[588,0] 1
x[588,1] 0
x[588,2] 0
x[589,0] 1
x[589,1] 0
x[589,2] 0
x[590,0] 1
x[590,1] 0
x[590,2] 0
x[591,0] 1
x[591,1] 0
x[591,2] 0
x[592,0] 1
x[592,1] 0
x[592,2] 0
x[593,0] 1
x[593,1] 0
x[593,2] 0
x[594,0] 1
x[594,1] 0
x[594,2] 0
x[595,0] 1
x[595,1] 0
x[595,2] 0
x[596,0] 1
x[596,1] 0
x[596,2] 0
x[597,0] 1
x[597,1] 0
x[597,2] 0
x[598,0] 1
x[598,1] 0
x[598,2] 0
x[599,0] 1
x[599,1] 0
x[599,2] 0
x[600,0] 1
x[600,1] 0
x[600,2] 0
x[601,0] 1
x[601,1] 0
x[601,2] 0
x[602,0] 1
x[602,1] 0
x[602,2] 0
x[603,0] 1
x[603,1] 0
x[603,2] 0
x[604,0] 1
x[604,1] 0
x[604,2] 0
x[605,0] 0
x[605,1] 1
x[605,2] 0
x[606,0] 1
x[606,1] 0
x[606,2] 0
x[607,0] 1
x[607,1] 0
x[607,2] 0
x[608,0] 1
x[608,1] 0
x[608,2] 0
x[609,0] 0
x[609,1] 1
x[609,2] 0
x[610,0] 1
x[610,1] 0
x[610,2] 0
x[611,0] 1
x[611,1] 0
x[611,2] 0
x[612,0] 1
x[612,1] 0
x[612,2] 0
x[613,0] 1
x[613,1] 0
x[613,2] 0
x[614,0] 1
x[614,1] 0
x[614,2] 0
x[615,0] 1
x[615,1] 0
x[615,2] 0
x[616,0] 1
x[616,1] 0
x[616,2] 0
x[617,0] 1
x[617,1] 0
x[617,2] 0
x[618,0] 1
x[618,1] 0
x[618,2] 0
x[619,0] 1
x[619,1] 0
x[619,2] 0
x[620,0] 1
x[620,1] 0
x[620,2] 0
x[621,0] 0
x[621,1] 0
x[621,2] 1
x[622,0] 0
x[622,1] 0
x[622,2] 1
x[623,0] 0
x[623,1] 0
x[623,2] 1
x[624,0] 0
x[624,1] 0
x[624,2] 1
x[625,0] 0
x[625,1] 0
x[625,2] 1
x[626,0] 0
x[626,1] 0
x[626,2] 1
x[627,0] 0
x[627,1] 0
x[627,2] 1
x[628,0] 0
x[628,1] 0
x[628,2] 1
x[629,0] 0
x[629,1] 0
x[629,2] 1
x[630,0] 0
x[630,1] 0
x[630,2] 1
x[631,0] 0
x[631,1] 0
x[631,2] 1
x[632,0] 0
x[632,1] 0
x[632,2] 1
x[633,0] 0
x[633,1] 0
x[633,2] 1
x[634,0] 0
x[634,1] 0
x[634,2] 1
x[635,0] 0
x[635,1] 0
x[635,2] 1
x[636,0] 0
x[636,1] 0
x[636,2] 1
x[637,0] 0
x[637,1] 0
x[637,2] 1
x[638,0] 0
x[638,1] 0
x[638,2] 1
x[639,0] 0
x[639,1] 0
x[639,2] 1
x[640,0] 0
x[640,1] 0
x[640,2] 1
x[641,0] 0
x[641,1] 0
x[641,2] 1
x[642,0] 0
x[642,1] 0
x[642,2] 1
x[643,0] 0
x[643,1] 0
x[643,2] 1
x[644,0] 0
x[644,1] 0
x[644,2] 1
x[645,0] 0
x[645,1] 0
x[645,2] 1
x[646,0] 0
x[646,1] 0
x[646,2] 1
x[647,0] 0
x[647,1] 0
x[647,2] 1
x[648,0] 0
x[648,1] 0
x[648,2] 1
x[649,0] 0
x[649,1] 0
x[649,2] 1
x[650,0] 0
x[650,1] 0
x[650,2] 1
x[651,0] 0
x[651,1] 0
x[651,2] 1
x[652,0] 0
x[652,1] 0
x[652,2] 1
x[653,0] 0
x[653,1] 0
x[653,2] 1
x[654,0] 0
x[654,1] 0
x[654,2] 1
x[655,0] 0
x[655,1] 0
x[655,2] 1
x[656,0] 0
x[656,1] 0
x[656,2] 1
x[657,0] 0
x[657,1] 0
x[657,2] 1
x[658,0] 0
x[658,1] 0
x[658,2] 1
x[659,0] 0
x[659,1] 1
x[659,2] 0
x[660,0] 0
x[660,1] 0
x[660,2] 1
x[661,0] 0
x[661,1] 0
x[661,2] 1
x[662,0] 0
x[662,1] 1
x[662,2] 0
x[663,0] 0
x[663,1] 0
x[663,2] 1
x[664,0] 0
x[664,1] 1
x[664,2] 0
x[665,0] 0
x[665,1] 1
x[665,2] 0
x[666,0] 0
x[666,1] 1
x[666,2] 0
x[667,0] 0
x[667,1] 0
x[667,2] 1
x[668,0] 0
x[668,1] 0
x[668,2] 1
x[669,0] 0
x[669,1] 1
x[669,2] 0
x[670,0] 0
x[670,1] 0
x[670,2] 1
x[671,0] 0
x[671,1] 0
x[671,2] 1
x[672,0] 0
x[672,1] 0
x[672,2] 1
x[673,0] 0
x[673,1] 0
x[673,2] 1
x[674,0] 0
x[674,1] 0
x[674,2] 1
x[675,0] 0
x[675,1] 0
x[675,2] 1
x[676,0] 0
x[676,1] 0
x[676,2] 1
x[677,0] 0
x[677,1] 0
x[677,2] 1
x[678,0] 0
x[678,1] 0
x[678,2] 1
x[679,0] 0
x[679,1] 1
x[679,2] 0
x[680,0] 0
x[680,1] 0
x[680,2] 1
x[681,0] 0
x[681,1] 0
x[681,2] 1
x[682,0] 0
x[682,1] 0
x[682,2] 1
x[683,0] 0
x[683,1] 0
x[683,2] 1
x[684,0] 0
x[684,1] 0
x[684,2] 1
x[685,0] 0
x[685,1] 0
x[685,2] 1
x[686,0] 0
x[686,1] 0
x[686,2] 1
x[687,0] 0
x[687,1] 0
x[687,2] 1
x[688,0] 0
x[688,1] 0
x[688,2] 1
x[689,0] 0
x[689,1] 0
x[689,2] 1
x[690,0] 0
x[690,1] 1
x[690,2] 0
x[691,0] 0
x[691,1] 1
x[691,2] 0
x[692,0] 0
x[692,1] 0
x[692,2] 1
x[693,0] 0
x[693,1] 0
x[693,2] 1
x[694,0] 0
x[694,1] 0
x[694,2] 1
x[695,0] 0
x[695,1] 1
x[695,2] 0
x[696,0] 0
x[696,1] 0
x[696,2] 1
x[697,0] 0
x[697,1] 1
x[697,2] 0
x[698,0] 0
x[698,1] 1
x[698,2] 0
x[699,0] 0
x[699,1] 1
x[699,2] 0
x[700,0] 0
x[700,1] 0
x[700,2] 1
x[701,0] 0
x[701,1] 0
x[701,2] 1
x[702,0] 1
x[702,1] 0
x[702,2] 0
x[703,0] 0
x[703,1] 0
x[703,2] 1
x[704,0] 0
x[704,1] 1
x[704,2] 0
x[705,0] 0
x[705,1] 1
x[705,2] 0
x[706,0] 0
x[706,1] 1
x[706,2] 0
x[707,0] 0
x[707,1] 0
x[707,2] 1
x[708,0] 0
x[708,1] 1
x[708,2] 0
x[709,0] 0
x[709,1] 1
x[709,2] 0
x[710,0] 0
x[710,1] 1
x[710,2] 0
x[711,0] 0
x[711,1] 0
x[711,2] 1
x[712,0] 0
x[712,1] 0
x[712,2] 1
x[713,0] 0
x[713,1] 0
x[713,2] 1
x[714,0] 0
x[714,1] 0
x[714,2] 1
x[715,0] 0
x[715,1] 0
x[715,2] 1
x[716,0] 0
x[716,1] 0
x[716,2] 1
x[717,0] 0
x[717,1] 0
x[717,2] 1
x[718,0] 1
x[718,1] 0
x[718,2] 0
x[719,0] 0
x[719,1] 0
x[719,2] 1
x[720,0] 0
x[720,1] 0
x[720,2] 1
x[721,0] 0
x[721,1] 0
x[721,2] 1
x[722,0] 0
x[722,1] 0
x[722,2] 1
x[723,0] 0
x[723,1] 0
x[723,2] 1
x[724,0] 0
x[724,1] 0
x[724,2] 1
x[725,0] 0
x[725,1] 0
x[725,2] 1
x[726,0] 0
x[726,1] 0
x[726,2] 1
x[727,0] 0
x[727,1] 0
x[727,2] 1
x[728,0] 0
x[728,1] 1
x[728,2] 0
x[729,0] 0
x[729,1] 1
x[729,2] 0
x[730,0] 0
x[730,1] 1
x[730,2] 0
x[731,0] 0
x[731,1] 1
x[731,2] 0
x[732,0] 0
x[732,1] 1
x[732,2] 0
x[733,0] 0
x[733,1] 1
x[733,2] 0
x[734,0] 0
x[734,1] 1
x[734,2] 0
x[735,0] 0
x[735,1] 1
x[735,2] 0
x[736,0] 0
x[736,1] 1
x[736,2] 0
x[737,0] 0
x[737,1] 1
x[737,2] 0
x[738,0] 0
x[738,1] 1
x[738,2] 0
x[739,0] 0
x[739,1] 1
x[739,2] 0
x[740,0] 0
x[740,1] 1
x[740,2] 0
x[741,0] 0
x[741,1] 1
x[741,2] 0
x[742,0] 0
x[742,1] 1
x[742,2] 0
x[743,0] 0
x[743,1] 1
x[743,2] 0
x[744,0] 0
x[744,1] 0
x[744,2] 1
x[745,0] 0
x[745,1] 0
x[745,2] 1
x[746,0] 0
x[746,1] 1
x[746,2] 0
x[747,0] 0
x[747,1] 1
x[747,2] 0
x[748,0] 0
x[748,1] 1
x[748,2] 0
x[749,0] 1
x[749,1] 0
x[749,2] 0
x[750,0] 0
x[750,1] 0
x[750,2] 1
x[751,0] 0
x[751,1] 0
x[751,2] 1
x[752,0] 0
x[752,1] 1
x[752,2] 0
x[753,0] 1
x[753,1] 0
x[753,2] 0
x[754,0] 1
x[754,1] 0
x[754,2] 0
x[755,0] 1
x[755,1] 0
x[755,2] 0
x[756,0] 0
x[756,1] 1
x[756,2] 0
x[757,0] 1
x[757,1] 0
x[757,2] 0
x[758,0] 1
x[758,1] 0
x[758,2] 0
x[759,0] 0
x[759,1] 1
x[759,2] 0
x[760,0] 0
x[760,1] 0
x[760,2] 1
x[761,0] 0
x[761,1] 0
x[761,2] 1
x[762,0] 0
x[762,1] 0
x[762,2] 1
x[763,0] 0
x[763,1] 1
x[763,2] 0
x[764,0] 0
x[764,1] 1
x[764,2] 0
x[765,0] 0
x[765,1] 0
x[765,2] 1
x[766,0] 0
x[766,1] 0
x[766,2] 1
x[767,0] 0
x[767,1] 0
x[767,2] 1
x[768,0] 0
x[768,1] 1
x[768,2] 0
x[769,0] 0
x[769,1] 0
x[769,2] 1
x[770,0] 0
x[770,1] 1
x[770,2] 0
x[771,0] 0
x[771,1] 1
x[771,2] 0
z[0,0,-1] 0
z[0,0,0] 0
z[0,0,1] 1
z[0,1,-1] 1
z[0,1,0] 0
z[0,1,1] 0
z[0,2,-1] 0
z[0,2,0] 0
z[0,2,1] 1
z[1,0,-1] 0
z[1,0,0] 0
z[1,0,1] 1
z[1,1,-1] 0
z[1,1,0] 1
z[1,1,1] 0
z[1,2,-1] 0
z[1,2,0] 0
z[1,2,1] 1
z[2,0,-1] 1
z[2,0,0] 0
z[2,0,1] 0
z[2,1,-1] 0
z[2,1,0] 1
z[2,1,1] 0
z[2,2,-1] 0
z[2,2,0] 0
z[2,2,1] 1
z[3,0,-1] 0
z[3,0,0] 0
z[3,0,1] 1
z[3,1,-1] 0
z[3,1,0] 1
z[3,1,1] 0
z[3,2,-1] 0
z[3,2,0] 0
z[3,2,1] 1
z[4,0,-1] 0
z[4,0,0] 0
z[4,0,1] 1
z[4,1,-1] 0
z[4,1,0] 1
z[4,1,1] 0
z[4,2,-1] 0
z[4,2,0] 0
z[4,2,1] 1
z[5,0,-1] 0
z[5,0,0] 0
z[5,0,1] 1
z[5,1,-1] 0
z[5,1,0] 1
z[5,1,1] 0
z[5,2,-1] 0
z[5,2,0] 0
z[5,2,1] 1
z[6,0,-1] 0
z[6,0,0] 1
z[6,0,1] 0
z[6,1,-1] 0
z[6,1,0] 0
z[6,1,1] 1
z[6,2,-1] 0
z[6,2,0] 1
z[6,2,1] 0
z[7,0,-1] 1
z[7,0,0] 0
z[7,0,1] 0
z[7,1,-1] 0
z[7,1,0] 0
z[7,1,1] 1
z[7,2,-1] 0
z[7,2,0] 1
z[7,2,1] 0
z[8,0,-1] 0
z[8,0,0] 1
z[8,0,1] 0
z[8,1,-1] 0
z[8,1,0] 0
z[8,1,1] 1
z[8,2,-1] 1
z[8,2,0] 0
z[8,2,1] 0
z[9,0,-1] 0
z[9,0,0] 1
z[9,0,1] 0
z[9,1,-1] 0
z[9,1,0] 0
z[9,1,1] 1
z[9,2,-1] 0
z[9,2,0] 1
z[9,2,1] 0
z[10,0,-1] 0
z[10,0,0] 1
z[10,0,1] 0
z[10,1,-1] 0
z[10,1,0] 0
z[10,1,1] 1
z[10,2,-1] 0
z[10,2,0] 1
z[10,2,1] 0
z[11,0,-1] 1
z[11,0,0] 0
z[11,0,1] 0
z[11,1,-1] 0
z[11,1,0] 1
z[11,1,1] 0
z[11,2,-1] 0
z[11,2,0] 1
z[11,2,1] 0
z[12,0,-1] 0
z[12,0,0] 1
z[12,0,1] 0
z[12,1,-1] 0
z[12,1,0] 1
z[12,1,1] 0
z[12,2,-1] 1
z[12,2,0] 0
z[12,2,1] 0
z[13,0,-1] 0
z[13,0,0] 1
z[13,0,1] 0
z[13,1,-1] 0
z[13,1,0] 1
z[13,1,1] 0
z[13,2,-1] 0
z[13,2,0] 1
z[13,2,1] 0
z[14,0,-1] 0
z[14,0,0] 1
z[14,0,1] 0
z[14,1,-1] 0
z[14,1,0] 1
z[14,1,1] 0
z[14,2,-1] 0
z[14,2,0] 1
z[14,2,1] 0
z[15,0,-1] 0
z[15,0,0] 0
z[15,0,1] 1
z[15,1,-1] 0
z[15,1,0] 1
z[15,1,1] 0
z[15,2,-1] 1
z[15,2,0] 0
z[15,2,1] 0
z[16,0,-1] 0
z[16,0,0] 0
z[16,0,1] 1
z[16,1,-1] 0
z[16,1,0] 1
z[16,1,1] 0
z[16,2,-1] 0
z[16,2,0] 1
z[16,2,1] 0
z[17,0,-1] 0
z[17,0,0] 0
z[17,0,1] 1
z[17,1,-1] 0
z[17,1,0] 1
z[17,1,1] 0
z[17,2,-1] 0
z[17,2,0] 1
z[17,2,1] 0
z[18,0,-1] 0
z[18,0,0] 1
z[18,0,1] 0
z[18,1,-1] 0
z[18,1,0] 1
z[18,1,1] 0
z[18,2,-1] 0
z[18,2,0] 0
z[18,2,1] 1
z[19,0,-1] 0
z[19,0,0] 1
z[19,0,1] 0
z[19,1,-1] 0
z[19,1,0] 1
z[19,1,1] 0
z[19,2,-1] 0
z[19,2,0] 0
z[19,2,1] 1
z[20,0,-1] 0
z[20,0,0] 1
z[20,0,1] 0
z[20,1,-1] 0
z[20,1,0] 1
z[20,1,1] 0
z[20,2,-1] 0
z[20,2,0] 1
z[20,2,1] 0
W[0,0,-1] 116
W[0,0,0] 386
W[0,0,1] 734
W[0,1,-1] 798
W[0,1,0] 228
W[0,1,1] 173
W[0,2,-1] 97
W[0,2,0] 59
W[0,2,1] 2259
W[1,0,-1] 34
W[1,0,0] 367
W[1,0,1] 835
W[1,1,-1] 435
W[1,1,0] 407
W[1,1,1] 357
W[1,2,-1] 229
W[1,2,0] 33
W[1,2,1] 2153
W[2,0,-1] 1052
W[2,0,0] 0
W[2,0,1] 184
W[2,1,-1] 223
W[2,1,0] 560
W[2,1,1] 416
W[2,2,-1] 26
W[2,2,0] 49
W[2,2,1] 2340
W[3,0,-1] 213
W[3,0,0] 341
W[3,0,1] 682
W[3,1,-1] 132
W[3,1,0] 685
W[3,1,1] 382
W[3,2,-1] 255
W[3,2,0] 0
W[3,2,1] 2160
W[4,0,-1] 25
W[4,0,0] 377
W[4,0,1] 834
W[4,1,-1] 99
W[4,1,0] 683
W[4,1,1] 417
W[4,2,-1] 37
W[4,2,0] 50
W[4,2,1] 2328
W[5,0,-1] 123
W[5,0,0] 336
W[5,0,1] 777
W[5,1,-1] 366
W[5,1,0] 481
W[5,1,1] 352
W[5,2,-1] 118
W[5,2,0] 36
W[5,2,1] 2261
W[6,0,-1] 49
W[6,0,0] 766
W[6,0,1] 421
W[6,1,-1] 345
W[6,1,0] 32
W[6,1,1] 822
W[6,2,-1] 698
W[6,2,0] 1149
W[6,2,1] 568
W[7,0,-1] 1202
W[7,0,0] 0
W[7,0,1] 34
W[7,1,-1] 140
W[7,1,0] 228
W[7,1,1] 831
W[7,2,-1] 357
W[7,2,0] 1459
W[7,2,1] 599
W[8,0,-1] 439
W[8,0,0] 567
W[8,0,1] 230
W[8,1,-1] 28
W[8,1,0] 227
W[8,1,1] 944
W[8,2,-1] 1735
W[8,2,0] 451
W[8,2,1] 229
W[9,0,-1] 60
W[9,0,0] 771
W[9,0,1] 405
W[9,1,-1] 54
W[9,1,0] 189
W[9,1,1] 956
W[9,2,-1] 153
W[9,2,0] 1589
W[9,2,1] 673
W[10,0,-1] 290
W[10,0,0] 656
W[10,0,1] 290
W[10,1,-1] 208
W[10,1,0] 150
W[10,1,1] 841
W[10,2,-1] 709
W[10,2,0] 1209
W[10,2,1] 497
W[11,0,-1] 1225
W[11,0,0] 0
W[11,0,1] 11
W[11,1,-1] 230
W[11,1,0] 472
W[11,1,1] 497
W[11,2,-1] 421
W[11,2,0] 1211
W[11,2,1] 783
W[12,0,-1] 522
W[12,0,0] 657
W[12,0,1] 57
W[12,1,-1] 136
W[12,1,0] 563
W[12,1,1] 500
W[12,2,-1] 1683
W[12,2,0] 271
W[12,2,1] 461
W[13,0,-1] 164
W[13,0,0] 924
W[13,0,1] 148
W[13,1,-1] 57
W[13,1,0] 637
W[13,1,1] 505
W[13,2,-1] 117
W[13,2,0] 1459
W[13,2,1] 839
W[14,0,-1] 425
W[14,0,0] 764
W[14,0,1] 47
W[14,1,-1] 357
W[14,1,0] 396
W[14,1,1] 446
W[14,2,-1] 684
W[14,2,0] 1080
W[14,2,1] 651
W[15,0,-1] 0
W[15,0,0] 0
W[15,0,1] 1236
W[15,1,-1] 153
W[15,1,0] 817
W[15,1,1] 229
W[15,2,-1] 1840
W[15,2,0] 458
W[15,2,1] 117
W[16,0,-1] 2
W[16,0,0] 0
W[16,0,1] 1234
W[16,1,-1] 118
W[16,1,0] 831
W[16,1,1] 250
W[16,2,-1] 237
W[16,2,0] 1731
W[16,2,1] 447
W[17,0,-1] 30
W[17,0,0] 0
W[17,0,1] 1206
W[17,1,-1] 426
W[17,1,0] 552
W[17,1,1] 221
W[17,2,-1] 800
W[17,2,0] 1252
W[17,2,1] 363
W[18,0,-1] 43
W[18,0,0] 670
W[18,0,1] 523
W[18,1,-1] 112
W[18,1,0] 914
W[18,1,1] 173
W[18,2,-1] 77
W[18,2,0] 412
W[18,2,1] 1926
W[19,0,-1] 208
W[19,0,0] 564
W[19,0,1] 464
W[19,1,-1] 469
W[19,1,0] 619
W[19,1,1] 111
W[19,2,-1] 327
W[19,2,0] 306
W[19,2,1] 1782
W[20,0,-1] 411
W[20,0,0] 772
W[20,0,1] 53
W[20,1,-1] 480
W[20,1,0] 641
W[20,1,1] 78
W[20,2,-1] 862
W[20,2,0] 1404
W[20,2,1] 149
C[0,0] 618
C[0,1] 574
C[0,2] 253
C[1,0] 435
C[1,1] 792
C[1,2] 491
C[2,0] 368
C[2,1] 639
C[2,2] 101
C[3,0] 767
C[3,1] 514
C[3,2] 510
C[4,0] 427
C[4,1] 516
C[4,2] 124
C[5,0] 582
C[5,1] 718
C[5,2] 272
C[6,0] 470
C[6,1] 722
C[6,2] 1266
C[7,0] 68
C[7,1] 508
C[7,2] 956
C[8,0] 669
C[8,1] 283
C[8,2] 909
C[9,0] 465
C[9,1] 297
C[9,2] 826
C[10,0] 580
C[10,1] 566
C[10,2] 1206
C[11,0] 22
C[11,1] 727
C[11,2] 1204
C[12,0] 579
C[12,1] 636
C[12,2] 1193
C[13,0] 312
C[13,1] 562
C[13,2] 956
C[14,0] 472
C[14,1] 803
C[14,2] 1335
C[15,0] 0
C[15,1] 382
C[15,2] 692
C[16,0] 4
C[16,1] 368
C[16,2] 684
C[17,0] 60
C[17,1] 647
C[17,2] 1163
C[18,0] 566
C[18,1] 285
C[18,2] 566
C[19,0] 672
C[19,1] 580
C[19,2] 960
C[20,0] 464
C[20,1] 558
C[20,2] 1011
n[0,0] 0
n[0,1] 1
n[0,2] 0
n[1,0] 1
n[1,1] 0
n[1,2] 1
n[2,0] 1
n[2,1] 1
n[2,2] 1
n[3,0] 0
n[3,1] 1
n[3,2] 1
n[4,0] 1
n[4,1] 1
n[4,2] 0
n[5,0] 1
n[5,1] 1
n[5,2] 1
n[6,0] 1
n[6,1] 1
n[6,2] 1
p[0,1,0] 1
p[0,1,1] 0
p[0,1,2] 1
p[0,2,0] 1
p[0,2,1] 0
p[0,2,2] 1
p[0,3,0] 0
p[0,3,1] 0
p[0,3,2] 1
p[0,4,0] 1
p[0,4,1] 0
p[0,4,2] 1
p[0,5,0] 1
p[0,5,1] 0
p[0,5,2] 1
p[0,6,0] 1
p[0,6,1] 0
p[0,6,2] 1
p[1,0,0] 0
p[1,0,1] 1
p[1,0,2] 0
p[1,2,0] 0
p[1,2,1] 1
p[1,2,2] 0
p[1,3,0] 0
p[1,3,1] 1
p[1,3,2] 0
p[1,4,0] 0
p[1,4,1] 1
p[1,4,2] 0
p[1,5,0] 0
p[1,5,1] 1
p[1,5,2] 0
p[1,6,0] 0
p[1,6,1] 1
p[1,6,2] 0
p[2,0,0] 0
p[2,0,1] 0
p[2,0,2] 0
p[2,1,0] 0
p[2,1,1] 0
p[2,1,2] 0
p[2,3,0] 0
p[2,3,1] 0
p[2,3,2] 0
p[2,4,0] 0
p[2,4,1] 0
p[2,4,2] 0
p[2,5,0] 0
p[2,5,1] 0
p[2,5,2] 0
p[2,6,0] 0
p[2,6,1] 0
p[2,6,2] 0
p[3,0,0] 1
p[3,0,1] 0
p[3,0,2] 0
p[3,1,0] 1
p[3,1,1] 0
p[3,1,2] 0
p[3,2,0] 1
p[3,2,1] 0
p[3,2,2] 0
p[3,4,0] 1
p[3,4,1] 0
p[3,4,2] 0
p[3,5,0] 1
p[3,5,1] 0
p[3,5,2] 0
p[3,6,0] 1
p[3,6,1] 0
p[3,6,2] 0
p[4,0,0] 0
p[4,0,1] 0
p[4,0,2] 0
p[4,1,0] 0
p[4,1,1] 0
p[4,1,2] 1
p[4,2,0] 0
p[4,2,1] 0
p[4,2,2] 1
p[4,3,0] 0
p[4,3,1] 0
p[4,3,2] 1
p[4,5,0] 0
p[4,5,1] 0
p[4,5,2] 1
p[4,6,0] 0
p[4,6,1] 0
p[4,6,2] 1
p[5,0,0] 0
p[5,0,1] 0
p[5,0,2] 0
p[5,1,0] 0
p[5,1,1] 0
p[5,1,2] 0
p[5,2,0] 0
p[5,2,1] 0
p[5,2,2] 0
p[5,3,0] 0
p[5,3,1] 0
p[5,3,2] 0
p[5,4,0] 0
p[5,4,1] 0
p[5,4,2] 0
p[5,6,0] 0
p[5,6,1] 0
p[5,6,2] 0
p[6,0,0] 0
p[6,0,1] 0
p[6,0,2] 0
p[6,1,0] 0
p[6,1,1] 0
p[6,1,2] 0
p[6,2,0] 0
p[6,2,1] 0
p[6,2,2] 0
p[6,3,0] 0
p[6,3,1] 0
p[6,3,2] 0
p[6,4,0] 0
p[6,4,1] 0
p[6,4,2] 0
p[6,5,0] 0
p[6,5,1] 0
p[6,5,2] 0
